<?xml version = "1.0" encoding="UTF-8" standalone="yes"?>
<CPLEXSolution version="1.2">
 <header
   problemName=""
   objectiveValue="5.7941199999999995"
   solutionTypeValue="1"
   solutionTypeString="basic"
   solutionStatusValue="1"
   solutionStatusString="optimal"
   solutionMethodString="dual"
   primalFeasible="1"
   dualFeasible="1"
   simplexIterations="0"
   writeLevel="1"/>
 <quality
   epRHS="9.9999999999999995e-07"
   epOpt="9.9999999999999995e-07"
   maxPrimalInfeas="0"
   maxDualInfeas="0"
   maxPrimalResidual="0"
   maxDualResidual="1.1102230246251565e-16"
   maxX="1"
   maxPi="5.7941199999999995"
   maxSlack="0"
   maxRedCost="1.1274699999999993"
   kappa="12"/>
 <linearConstraints>
  <constraint name="pinv0" index="0" status="LL" slack="0" dual="-0"/>
  <constraint name="pinv1" index="1" status="LL" slack="0" dual="-2.7942199999999993"/>
  <constraint name="pinv2" index="2" status="LL" slack="0" dual="-0.99990000000000012"/>
  <constraint name="pinv3" index="3" status="LL" slack="0" dual="-2.3529599999999995"/>
  <constraint name="pinv4" index="4" status="LL" slack="0" dual="-1.44116"/>
  <constraint name="pinv5" index="5" status="LL" slack="0" dual="-3.7941199999999995"/>
  <constraint name="pinv6" index="6" status="LL" slack="0" dual="-1.1274699999999993"/>
  <constraint name="pinv7" index="7" status="BS" slack="0" dual="-0"/>
  <constraint name="pinv8" index="8" status="BS" slack="0" dual="-0"/>
  <constraint name="pinv9" index="9" status="BS" slack="0" dual="-0"/>
  <constraint name="inimark10" index="10" status="LL" slack="0" dual="5.7941199999999995"/>
 </linearConstraints>
 <variables>
  <variable name="y0" index="0" status="BS" value="1" reducedCost="0"/>
  <variable name="y1" index="1" status="BS" value="0" reducedCost="0"/>
  <variable name="y2" index="2" status="BS" value="1" reducedCost="0"/>
  <variable name="y3" index="3" status="BS" value="0" reducedCost="0"/>
  <variable name="y4" index="4" status="BS" value="1" reducedCost="0"/>
  <variable name="y5" index="5" status="BS" value="0" reducedCost="0"/>
  <variable name="y6" index="6" status="BS" value="1" reducedCost="0"/>
  <variable name="y7" index="7" status="LL" value="0" reducedCost="-1.1274699999999993"/>
  <variable name="y8" index="8" status="BS" value="1" reducedCost="0"/>
 </variables>
 <objectiveValues>
  <objective index="0" name="" value="5.7941199999999995"/>
 </objectiveValues>
</CPLEXSolution>
